files/upTests/_functions/funcSetLits/0003.eprime
language ESSENCE' 1.0

find f_Matrix1D_SetExplicitVarSize_tuple1:
        matrix indexed by [int(1..3), int(1..2)] of bool
find f_Matrix1D_SetExplicitVarSize_tuple2:
        matrix indexed by [int(1..3), int(1..2)] of int(1, 2)
such that
    forAll v__0 : int(1..3)
        . (f_Matrix1D_SetExplicitVarSize_tuple1[v__0, 1]
           /\
           f_Matrix1D_SetExplicitVarSize_tuple1[v__0, 2]
           ->
           f_Matrix1D_SetExplicitVarSize_tuple2[v__0, 1]
           <
           f_Matrix1D_SetExplicitVarSize_tuple2[v__0, 2])
          /\
          f_Matrix1D_SetExplicitVarSize_tuple1[v__0, 1]
          <=
          f_Matrix1D_SetExplicitVarSize_tuple1[v__0, 2],
    forAll v__0 : int(1..3)
        . (3 = v__0
           ->
           (forAll v__1 : int(1..2)
                . f_Matrix1D_SetExplicitVarSize_tuple1[v__0, v__1] -> false))
          /\
          (2 = v__0
           ->
           (exists v__1 : int(1..2)
                . f_Matrix1D_SetExplicitVarSize_tuple1[v__0, v__1]
                  /\
                  f_Matrix1D_SetExplicitVarSize_tuple2[v__0, v__1] = 1)
           /\
           (forAll v__1 : int(1..2)
                . f_Matrix1D_SetExplicitVarSize_tuple1[v__0, v__1]
                  ->
                  1 = f_Matrix1D_SetExplicitVarSize_tuple2[v__0, v__1]))
          /\
          (1 = v__0
           ->
           (exists v__1 : int(1..2)
                . f_Matrix1D_SetExplicitVarSize_tuple1[v__0, v__1]
                  /\
                  f_Matrix1D_SetExplicitVarSize_tuple2[v__0, v__1] = 2)
           /\
           (exists v__1 : int(1..2)
                . f_Matrix1D_SetExplicitVarSize_tuple1[v__0, v__1]
                  /\
                  f_Matrix1D_SetExplicitVarSize_tuple2[v__0, v__1] = 1)
           /\
           (forAll v__1 : int(1..2)
                . f_Matrix1D_SetExplicitVarSize_tuple1[v__0, v__1]
                  ->
                  2 = f_Matrix1D_SetExplicitVarSize_tuple2[v__0, v__1]
                  \/
                  1 = f_Matrix1D_SetExplicitVarSize_tuple2[v__0, v__1]))
