files/upTests/_functions/funcSetLits/0003.eprime.solution
language ESSENCE' 1.0
$ minion Nodes: 4
$ minion TotalTime: 0.000899
$ Savile Row TotalTime: 0.35
letting f_Matrix1D_SetExplicitVarSize_tuple1 be [[true, true;int(1..2)], 
[false, true;int(1..2)], 
[false, false;int(1..2)];int(1..3)]
letting f_Matrix1D_SetExplicitVarSize_tuple2 be [[1, 2;int(1..2)], 
[1, 1;int(1..2)], 
[1, 1;int(1..2)];int(1..3)]
